Route #1: 10 8 9 6 7 5 3 4 2 75
Route #2: 11 12 14 16 15 19 18 17 13
Route #3: 21 22 23 26 28 30 29 27 25 24 20
Route #4: 32 33 31 35 37 38 39 36 34
Route #5: 47 49 52 50 51 48 46 45 44 40 41 42 43
Route #6: 57 59 60 58 56 53 54 55
Route #7: 82 81 78 76 71 70 73 77 79 80
Route #8: 67 65 63 62 74 72 61 64 68 66 69
Route #9: 91 89 88 85 84 83 86 87 90
Route #10: 98 96 95 94 92 93 97 100 99 1
cost 834
